\Problem name: ULS

Minimize
OBJROW: 3000 Y0 + 3000 Y1 + 3000 Y2 + 3000 Y3 + 3000 Y4 + 3000 Y5 + 3000 Y6 + 3000 Y7 + 3000 Y8 + 3000 Y9
 + 3000 Y10 + 3000 Y11 + 3000 Y12 + 3000 Y13 + 3000 Y14 + 3000 Y15 + 3000 Y16 + 3000 Y17 + 3000 Y18 + 3000 Y19
 + 3000 Y20 + 150 x(0,0) + 175 x(1,0) + 135 x(2,0) + 517 x(3,0) + 442 x(4,0) + 150 x(5,0) + 255 x(6,0) + 570 x(7,0) + 525 x(8,0)
 + 345 x(9,0) + 1175 x(10,0) + 918 x(11,0) + 290 x(12,0) + 465 x(13,0) + 990 x(14,0) + 875 x(15,0) + 555 x(16,0) + 1833 x(17,0) + 1394 x(18,0)
 + 430 x(19,0) + 675 x(20,0) + 90 x(0,1) + 75 x(1,1) + 75 x(2,1) + 329 x(3,1) + 306 x(4,1) + 110 x(5,1) + 195 x(6,1) + 450 x(7,1)
 + 425 x(8,1) + 285 x(9,1) + 987 x(10,1) + 782 x(11,1) + 250 x(12,1) + 405 x(13,1) + 870 x(14,1) + 775 x(15,1) + 495 x(16,1) + 1645 x(17,1)
 + 1258 x(18,1) + 390 x(19,1) + 615 x(20,1) + 120 x(0,2) + 100 x(1,2) + 60 x(2,2) + 282 x(3,2) + 272 x(4,2) + 100 x(5,2) + 180 x(6,2)
 + 420 x(7,2) + 400 x(8,2) + 270 x(9,2) + 940 x(10,2) + 748 x(11,2) + 240 x(12,2) + 390 x(13,2) + 840 x(14,2) + 750 x(15,2) + 480 x(16,2)
 + 1598 x(17,2) + 1224 x(18,2) + 380 x(19,2) + 600 x(20,2) + 150 x(0,3) + 125 x(1,3) + 75 x(2,3) + 235 x(3,3) + 238 x(4,3) + 90 x(5,3)
 + 165 x(6,3) + 390 x(7,3) + 375 x(8,3) + 255 x(9,3) + 893 x(10,3) + 714 x(11,3) + 230 x(12,3) + 375 x(13,3) + 810 x(14,3) + 725 x(15,3)
 + 465 x(16,3) + 1551 x(17,3) + 1190 x(18,3) + 370 x(19,3) + 585 x(20,3) + 180 x(0,4) + 150 x(1,4) + 90 x(2,4) + 282 x(3,4) + 204 x(4,4)
 + 80 x(5,4) + 150 x(6,4) + 360 x(7,4) + 350 x(8,4) + 240 x(9,4) + 846 x(10,4) + 680 x(11,4) + 220 x(12,4) + 360 x(13,4) + 780 x(14,4)
 + 700 x(15,4) + 450 x(16,4) + 1504 x(17,4) + 1156 x(18,4) + 360 x(19,4) + 570 x(20,4) + 90 x(0,5) + 75 x(1,5) + 45 x(2,5) + 141 x(3,5)
 + 102 x(4,5) + 30 x(5,5) + 75 x(6,5) + 210 x(7,5) + 225 x(8,5) + 165 x(9,5) + 611 x(10,5) + 510 x(11,5) + 170 x(12,5) + 285 x(13,5)
 + 630 x(14,5) + 575 x(15,5) + 375 x(16,5) + 1269 x(17,5) + 986 x(18,5) + 310 x(19,5) + 495 x(20,5) + 120 x(0,6) + 100 x(1,6) + 60 x(2,6)
 + 188 x(3,6) + 136 x(4,6) + 40 x(5,6) + 60 x(6,6) + 180 x(7,6) + 200 x(8,6) + 150 x(9,6) + 564 x(10,6) + 476 x(11,6) + 160 x(12,6)
 + 270 x(13,6) + 600 x(14,6) + 550 x(15,6) + 360 x(16,6) + 1222 x(17,6) + 952 x(18,6) + 300 x(19,6) + 480 x(20,6) + 150 x(0,7) + 125 x(1,7)
 + 75 x(2,7) + 235 x(3,7) + 170 x(4,7) + 50 x(5,7) + 75 x(6,7) + 150 x(7,7) + 175 x(8,7) + 135 x(9,7) + 517 x(10,7) + 442 x(11,7)
 + 150 x(12,7) + 255 x(13,7) + 570 x(14,7) + 525 x(15,7) + 345 x(16,7) + 1175 x(17,7) + 918 x(18,7) + 290 x(19,7) + 465 x(20,7) + 90 x(0,8)
 + 75 x(1,8) + 45 x(2,8) + 141 x(3,8) + 102 x(4,8) + 30 x(5,8) + 45 x(6,8) + 90 x(7,8) + 75 x(8,8) + 75 x(9,8) + 329 x(10,8)
 + 306 x(11,8) + 110 x(12,8) + 195 x(13,8) + 450 x(14,8) + 425 x(15,8) + 285 x(16,8) + 987 x(17,8) + 782 x(18,8) + 250 x(19,8) + 405 x(20,8)
 + 120 x(0,9) + 100 x(1,9) + 60 x(2,9) + 188 x(3,9) + 136 x(4,9) + 40 x(5,9) + 60 x(6,9) + 120 x(7,9) + 100 x(8,9) + 60 x(9,9)
 + 282 x(10,9) + 272 x(11,9) + 100 x(12,9) + 180 x(13,9) + 420 x(14,9) + 400 x(15,9) + 270 x(16,9) + 940 x(17,9) + 748 x(18,9) + 240 x(19,9)
 + 390 x(20,9) + 150 x(0,10) + 125 x(1,10) + 75 x(2,10) + 235 x(3,10) + 170 x(4,10) + 50 x(5,10) + 75 x(6,10) + 150 x(7,10) + 125 x(8,10)
 + 75 x(9,10) + 235 x(10,10) + 238 x(11,10) + 90 x(12,10) + 165 x(13,10) + 390 x(14,10) + 375 x(15,10) + 255 x(16,10) + 893 x(17,10) + 714 x(18,10)
 + 230 x(19,10) + 375 x(20,10) + 180 x(0,11) + 150 x(1,11) + 90 x(2,11) + 282 x(3,11) + 204 x(4,11) + 60 x(5,11) + 90 x(6,11) + 180 x(7,11)
 + 150 x(8,11) + 90 x(9,11) + 282 x(10,11) + 204 x(11,11) + 80 x(12,11) + 150 x(13,11) + 360 x(14,11) + 350 x(15,11) + 240 x(16,11) + 846 x(17,11)
 + 680 x(18,11) + 220 x(19,11) + 360 x(20,11) + 90 x(0,12) + 75 x(1,12) + 45 x(2,12) + 141 x(3,12) + 102 x(4,12) + 30 x(5,12) + 45 x(6,12)
 + 90 x(7,12) + 75 x(8,12) + 45 x(9,12) + 141 x(10,12) + 102 x(11,12) + 30 x(12,12) + 75 x(13,12) + 210 x(14,12) + 225 x(15,12) + 165 x(16,12)
 + 611 x(17,12) + 510 x(18,12) + 170 x(19,12) + 285 x(20,12) + 120 x(0,13) + 100 x(1,13) + 60 x(2,13) + 188 x(3,13) + 136 x(4,13) + 40 x(5,13)
 + 60 x(6,13) + 120 x(7,13) + 100 x(8,13) + 60 x(9,13) + 188 x(10,13) + 136 x(11,13) + 40 x(12,13) + 60 x(13,13) + 180 x(14,13) + 200 x(15,13)
 + 150 x(16,13) + 564 x(17,13) + 476 x(18,13) + 160 x(19,13) + 270 x(20,13) + 150 x(0,14) + 125 x(1,14) + 75 x(2,14) + 235 x(3,14) + 170 x(4,14)
 + 50 x(5,14) + 75 x(6,14) + 150 x(7,14) + 125 x(8,14) + 75 x(9,14) + 235 x(10,14) + 170 x(11,14) + 50 x(12,14) + 75 x(13,14) + 150 x(14,14)
 + 175 x(15,14) + 135 x(16,14) + 517 x(17,14) + 442 x(18,14) + 150 x(19,14) + 255 x(20,14) + 90 x(0,15) + 75 x(1,15) + 45 x(2,15) + 141 x(3,15)
 + 102 x(4,15) + 30 x(5,15) + 45 x(6,15) + 90 x(7,15) + 75 x(8,15) + 45 x(9,15) + 141 x(10,15) + 102 x(11,15) + 30 x(12,15) + 45 x(13,15)
 + 90 x(14,15) + 75 x(15,15) + 75 x(16,15) + 329 x(17,15) + 306 x(18,15) + 110 x(19,15) + 195 x(20,15) + 120 x(0,16) + 100 x(1,16) + 60 x(2,16)
 + 188 x(3,16) + 136 x(4,16) + 40 x(5,16) + 60 x(6,16) + 120 x(7,16) + 100 x(8,16) + 60 x(9,16) + 188 x(10,16) + 136 x(11,16) + 40 x(12,16)
 + 60 x(13,16) + 120 x(14,16) + 100 x(15,16) + 60 x(16,16) + 282 x(17,16) + 272 x(18,16) + 100 x(19,16) + 180 x(20,16) + 150 x(0,17) + 125 x(1,17)
 + 75 x(2,17) + 235 x(3,17) + 170 x(4,17) + 50 x(5,17) + 75 x(6,17) + 150 x(7,17) + 125 x(8,17) + 75 x(9,17) + 235 x(10,17) + 170 x(11,17)
 + 50 x(12,17) + 75 x(13,17) + 150 x(14,17) + 125 x(15,17) + 75 x(16,17) + 235 x(17,17) + 238 x(18,17) + 90 x(19,17) + 165 x(20,17) + 180 x(0,18)
 + 150 x(1,18) + 90 x(2,18) + 282 x(3,18) + 204 x(4,18) + 60 x(5,18) + 90 x(6,18) + 180 x(7,18) + 150 x(8,18) + 90 x(9,18) + 282 x(10,18)
 + 204 x(11,18) + 60 x(12,18) + 90 x(13,18) + 180 x(14,18) + 150 x(15,18) + 90 x(16,18) + 282 x(17,18) + 204 x(18,18) + 80 x(19,18) + 150 x(20,18)
 + 90 x(0,19) + 75 x(1,19) + 45 x(2,19) + 141 x(3,19) + 102 x(4,19) + 30 x(5,19) + 45 x(6,19) + 90 x(7,19) + 75 x(8,19) + 45 x(9,19)
 + 141 x(10,19) + 102 x(11,19) + 30 x(12,19) + 45 x(13,19) + 90 x(14,19) + 75 x(15,19) + 45 x(16,19) + 141 x(17,19) + 102 x(18,19) + 30 x(19,19)
 + 75 x(20,19) + 120 x(0,20) + 100 x(1,20) + 60 x(2,20) + 188 x(3,20) + 136 x(4,20) + 40 x(5,20) + 60 x(6,20) + 120 x(7,20) + 100 x(8,20)
 + 60 x(9,20) + 188 x(10,20) + 136 x(11,20) + 40 x(12,20) + 60 x(13,20) + 120 x(14,20) + 100 x(15,20) + 60 x(16,20) + 188 x(17,20) + 136 x(18,20)
 + 40 x(19,20) + 60 x(20,20)
Subject To
constr(0):  30 x(0,0) >= 30
constr(1):  25 x(1,0) + 25 x(1,1) >= 25
constr(2):  15 x(2,0) + 15 x(2,1) + 15 x(2,2) >= 15
constr(3):  47 x(3,0) + 47 x(3,1) + 47 x(3,2) + 47 x(3,3) >= 47
constr(4):  34 x(4,0) + 34 x(4,1) + 34 x(4,2) + 34 x(4,3) + 34 x(4,4) >= 34
constr(5):  10 x(5,0) + 10 x(5,1) + 10 x(5,2) + 10 x(5,3) + 10 x(5,4) + 10 x(5,5) >= 10
constr(6):  15 x(6,0) + 15 x(6,1) + 15 x(6,2) + 15 x(6,3) + 15 x(6,4) + 15 x(6,5) + 15 x(6,6) >= 15
constr(7):  30 x(7,0) + 30 x(7,1) + 30 x(7,2) + 30 x(7,3) + 30 x(7,4) + 30 x(7,5) + 30 x(7,6) + 30 x(7,7) >= 30
constr(8):  25 x(8,0) + 25 x(8,1) + 25 x(8,2) + 25 x(8,3) + 25 x(8,4) + 25 x(8,5) + 25 x(8,6) + 25 x(8,7) + 25 x(8,8) >= 25
constr(9):  15 x(9,0) + 15 x(9,1) + 15 x(9,2) + 15 x(9,3) + 15 x(9,4) + 15 x(9,5) + 15 x(9,6) + 15 x(9,7) + 15 x(9,8) + 15 x(9,9)
 >= 15
constr(10):  47 x(10,0) + 47 x(10,1) + 47 x(10,2) + 47 x(10,3) + 47 x(10,4) + 47 x(10,5) + 47 x(10,6) + 47 x(10,7) + 47 x(10,8) + 47 x(10,9)
 + 47 x(10,10) >= 47
constr(11):  34 x(11,0) + 34 x(11,1) + 34 x(11,2) + 34 x(11,3) + 34 x(11,4) + 34 x(11,5) + 34 x(11,6) + 34 x(11,7) + 34 x(11,8) + 34 x(11,9)
 + 34 x(11,10) + 34 x(11,11) >= 34
constr(12):  10 x(12,0) + 10 x(12,1) + 10 x(12,2) + 10 x(12,3) + 10 x(12,4) + 10 x(12,5) + 10 x(12,6) + 10 x(12,7) + 10 x(12,8) + 10 x(12,9)
 + 10 x(12,10) + 10 x(12,11) + 10 x(12,12) >= 10
constr(13):  15 x(13,0) + 15 x(13,1) + 15 x(13,2) + 15 x(13,3) + 15 x(13,4) + 15 x(13,5) + 15 x(13,6) + 15 x(13,7) + 15 x(13,8) + 15 x(13,9)
 + 15 x(13,10) + 15 x(13,11) + 15 x(13,12) + 15 x(13,13) >= 15
constr(14):  30 x(14,0) + 30 x(14,1) + 30 x(14,2) + 30 x(14,3) + 30 x(14,4) + 30 x(14,5) + 30 x(14,6) + 30 x(14,7) + 30 x(14,8) + 30 x(14,9)
 + 30 x(14,10) + 30 x(14,11) + 30 x(14,12) + 30 x(14,13) + 30 x(14,14) >= 30
constr(15):  25 x(15,0) + 25 x(15,1) + 25 x(15,2) + 25 x(15,3) + 25 x(15,4) + 25 x(15,5) + 25 x(15,6) + 25 x(15,7) + 25 x(15,8) + 25 x(15,9)
 + 25 x(15,10) + 25 x(15,11) + 25 x(15,12) + 25 x(15,13) + 25 x(15,14) + 25 x(15,15) >= 25
constr(16):  15 x(16,0) + 15 x(16,1) + 15 x(16,2) + 15 x(16,3) + 15 x(16,4) + 15 x(16,5) + 15 x(16,6) + 15 x(16,7) + 15 x(16,8) + 15 x(16,9)
 + 15 x(16,10) + 15 x(16,11) + 15 x(16,12) + 15 x(16,13) + 15 x(16,14) + 15 x(16,15) + 15 x(16,16) >= 15
constr(17):  47 x(17,0) + 47 x(17,1) + 47 x(17,2) + 47 x(17,3) + 47 x(17,4) + 47 x(17,5) + 47 x(17,6) + 47 x(17,7) + 47 x(17,8) + 47 x(17,9)
 + 47 x(17,10) + 47 x(17,11) + 47 x(17,12) + 47 x(17,13) + 47 x(17,14) + 47 x(17,15) + 47 x(17,16) + 47 x(17,17) >= 47
constr(18):  34 x(18,0) + 34 x(18,1) + 34 x(18,2) + 34 x(18,3) + 34 x(18,4) + 34 x(18,5) + 34 x(18,6) + 34 x(18,7) + 34 x(18,8) + 34 x(18,9)
 + 34 x(18,10) + 34 x(18,11) + 34 x(18,12) + 34 x(18,13) + 34 x(18,14) + 34 x(18,15) + 34 x(18,16) + 34 x(18,17) + 34 x(18,18) >= 34
constr(19):  10 x(19,0) + 10 x(19,1) + 10 x(19,2) + 10 x(19,3) + 10 x(19,4) + 10 x(19,5) + 10 x(19,6) + 10 x(19,7) + 10 x(19,8) + 10 x(19,9)
 + 10 x(19,10) + 10 x(19,11) + 10 x(19,12) + 10 x(19,13) + 10 x(19,14) + 10 x(19,15) + 10 x(19,16) + 10 x(19,17) + 10 x(19,18) + 10 x(19,19)
 >= 10
constr(20):  15 x(20,0) + 15 x(20,1) + 15 x(20,2) + 15 x(20,3) + 15 x(20,4) + 15 x(20,5) + 15 x(20,6) + 15 x(20,7) + 15 x(20,8) + 15 x(20,9)
 + 15 x(20,10) + 15 x(20,11) + 15 x(20,12) + 15 x(20,13) + 15 x(20,14) + 15 x(20,15) + 15 x(20,16) + 15 x(20,17) + 15 x(20,18) + 15 x(20,19)
 + 15 x(20,20) >= 15
constr(21):  -100000 Y0 + 30 x(0,0) + 30 x(1,0) + 30 x(2,0) + 30 x(3,0) + 30 x(4,0) + 30 x(5,0) + 30 x(6,0) + 30 x(7,0) + 30 x(8,0)
 + 30 x(9,0) + 30 x(10,0) + 30 x(11,0) + 30 x(12,0) + 30 x(13,0) + 30 x(14,0) + 30 x(15,0) + 30 x(16,0) + 30 x(17,0) + 30 x(18,0)
 + 30 x(19,0) + 30 x(20,0) <= -0
constr(22):  -100000 Y1 + 25 x(1,1) + 25 x(2,1) + 25 x(3,1) + 25 x(4,1) + 25 x(5,1) + 25 x(6,1) + 25 x(7,1) + 25 x(8,1) + 25 x(9,1)
 + 25 x(10,1) + 25 x(11,1) + 25 x(12,1) + 25 x(13,1) + 25 x(14,1) + 25 x(15,1) + 25 x(16,1) + 25 x(17,1) + 25 x(18,1) + 25 x(19,1)
 + 25 x(20,1) <= -0
constr(23):  -100000 Y2 + 15 x(2,2) + 15 x(3,2) + 15 x(4,2) + 15 x(5,2) + 15 x(6,2) + 15 x(7,2) + 15 x(8,2) + 15 x(9,2) + 15 x(10,2)
 + 15 x(11,2) + 15 x(12,2) + 15 x(13,2) + 15 x(14,2) + 15 x(15,2) + 15 x(16,2) + 15 x(17,2) + 15 x(18,2) + 15 x(19,2) + 15 x(20,2)
 <= -0
constr(24):  -100000 Y3 + 47 x(3,3) + 47 x(4,3) + 47 x(5,3) + 47 x(6,3) + 47 x(7,3) + 47 x(8,3) + 47 x(9,3) + 47 x(10,3) + 47 x(11,3)
 + 47 x(12,3) + 47 x(13,3) + 47 x(14,3) + 47 x(15,3) + 47 x(16,3) + 47 x(17,3) + 47 x(18,3) + 47 x(19,3) + 47 x(20,3) <= -0
constr(25):  -100000 Y4 + 34 x(4,4) + 34 x(5,4) + 34 x(6,4) + 34 x(7,4) + 34 x(8,4) + 34 x(9,4) + 34 x(10,4) + 34 x(11,4) + 34 x(12,4)
 + 34 x(13,4) + 34 x(14,4) + 34 x(15,4) + 34 x(16,4) + 34 x(17,4) + 34 x(18,4) + 34 x(19,4) + 34 x(20,4) <= -0
constr(26):  -100000 Y5 + 10 x(5,5) + 10 x(6,5) + 10 x(7,5) + 10 x(8,5) + 10 x(9,5) + 10 x(10,5) + 10 x(11,5) + 10 x(12,5) + 10 x(13,5)
 + 10 x(14,5) + 10 x(15,5) + 10 x(16,5) + 10 x(17,5) + 10 x(18,5) + 10 x(19,5) + 10 x(20,5) <= -0
constr(27):  -100000 Y6 + 15 x(6,6) + 15 x(7,6) + 15 x(8,6) + 15 x(9,6) + 15 x(10,6) + 15 x(11,6) + 15 x(12,6) + 15 x(13,6) + 15 x(14,6)
 + 15 x(15,6) + 15 x(16,6) + 15 x(17,6) + 15 x(18,6) + 15 x(19,6) + 15 x(20,6) <= -0
constr(28):  -100000 Y7 + 30 x(7,7) + 30 x(8,7) + 30 x(9,7) + 30 x(10,7) + 30 x(11,7) + 30 x(12,7) + 30 x(13,7) + 30 x(14,7) + 30 x(15,7)
 + 30 x(16,7) + 30 x(17,7) + 30 x(18,7) + 30 x(19,7) + 30 x(20,7) <= -0
constr(29):  -100000 Y8 + 25 x(8,8) + 25 x(9,8) + 25 x(10,8) + 25 x(11,8) + 25 x(12,8) + 25 x(13,8) + 25 x(14,8) + 25 x(15,8) + 25 x(16,8)
 + 25 x(17,8) + 25 x(18,8) + 25 x(19,8) + 25 x(20,8) <= -0
constr(30):  -100000 Y9 + 15 x(9,9) + 15 x(10,9) + 15 x(11,9) + 15 x(12,9) + 15 x(13,9) + 15 x(14,9) + 15 x(15,9) + 15 x(16,9) + 15 x(17,9)
 + 15 x(18,9) + 15 x(19,9) + 15 x(20,9) <= -0
constr(31):  -100000 Y10 + 47 x(10,10) + 47 x(11,10) + 47 x(12,10) + 47 x(13,10) + 47 x(14,10) + 47 x(15,10) + 47 x(16,10) + 47 x(17,10) + 47 x(18,10)
 + 47 x(19,10) + 47 x(20,10) <= -0
constr(32):  -100000 Y11 + 34 x(11,11) + 34 x(12,11) + 34 x(13,11) + 34 x(14,11) + 34 x(15,11) + 34 x(16,11) + 34 x(17,11) + 34 x(18,11) + 34 x(19,11)
 + 34 x(20,11) <= -0
constr(33):  -100000 Y12 + 10 x(12,12) + 10 x(13,12) + 10 x(14,12) + 10 x(15,12) + 10 x(16,12) + 10 x(17,12) + 10 x(18,12) + 10 x(19,12) + 10 x(20,12)
 <= -0
constr(34):  -100000 Y13 + 15 x(13,13) + 15 x(14,13) + 15 x(15,13) + 15 x(16,13) + 15 x(17,13) + 15 x(18,13) + 15 x(19,13) + 15 x(20,13) <= -0
constr(35):  -100000 Y14 + 30 x(14,14) + 30 x(15,14) + 30 x(16,14) + 30 x(17,14) + 30 x(18,14) + 30 x(19,14) + 30 x(20,14) <= -0
constr(36):  -100000 Y15 + 25 x(15,15) + 25 x(16,15) + 25 x(17,15) + 25 x(18,15) + 25 x(19,15) + 25 x(20,15) <= -0
constr(37):  -100000 Y16 + 15 x(16,16) + 15 x(17,16) + 15 x(18,16) + 15 x(19,16) + 15 x(20,16) <= -0
constr(38):  -100000 Y17 + 47 x(17,17) + 47 x(18,17) + 47 x(19,17) + 47 x(20,17) <= -0
constr(39):  -100000 Y18 + 34 x(18,18) + 34 x(19,18) + 34 x(20,18) <= -0
constr(40):  -100000 Y19 + 10 x(19,19) + 10 x(20,19) <= -0
constr(41):  -100000 Y20 + 15 x(20,20) <= -0
Bounds
 0 <= Y0 <= 1
 0 <= Y1 <= 1
 0 <= Y2 <= 1
 0 <= Y3 <= 1
 0 <= Y4 <= 1
 0 <= Y5 <= 1
 0 <= Y6 <= 1
 0 <= Y7 <= 1
 0 <= Y8 <= 1
 0 <= Y9 <= 1
 0 <= Y10 <= 1
 0 <= Y11 <= 1
 0 <= Y12 <= 1
 0 <= Y13 <= 1
 0 <= Y14 <= 1
 0 <= Y15 <= 1
 0 <= Y16 <= 1
 0 <= Y17 <= 1
 0 <= Y18 <= 1
 0 <= Y19 <= 1
 0 <= Y20 <= 1
 0 <= x(0,0) <= 1
 0 <= x(1,0) <= 1
 0 <= x(2,0) <= 1
 0 <= x(3,0) <= 1
 0 <= x(4,0) <= 1
 0 <= x(5,0) <= 1
 0 <= x(6,0) <= 1
 0 <= x(7,0) <= 1
 0 <= x(8,0) <= 1
 0 <= x(9,0) <= 1
 0 <= x(10,0) <= 1
 0 <= x(11,0) <= 1
 0 <= x(12,0) <= 1
 0 <= x(13,0) <= 1
 0 <= x(14,0) <= 1
 0 <= x(15,0) <= 1
 0 <= x(16,0) <= 1
 0 <= x(17,0) <= 1
 0 <= x(18,0) <= 1
 0 <= x(19,0) <= 1
 0 <= x(20,0) <= 1
 0 <= x(0,1) <= 1
 0 <= x(1,1) <= 1
 0 <= x(2,1) <= 1
 0 <= x(3,1) <= 1
 0 <= x(4,1) <= 1
 0 <= x(5,1) <= 1
 0 <= x(6,1) <= 1
 0 <= x(7,1) <= 1
 0 <= x(8,1) <= 1
 0 <= x(9,1) <= 1
 0 <= x(10,1) <= 1
 0 <= x(11,1) <= 1
 0 <= x(12,1) <= 1
 0 <= x(13,1) <= 1
 0 <= x(14,1) <= 1
 0 <= x(15,1) <= 1
 0 <= x(16,1) <= 1
 0 <= x(17,1) <= 1
 0 <= x(18,1) <= 1
 0 <= x(19,1) <= 1
 0 <= x(20,1) <= 1
 0 <= x(0,2) <= 1
 0 <= x(1,2) <= 1
 0 <= x(2,2) <= 1
 0 <= x(3,2) <= 1
 0 <= x(4,2) <= 1
 0 <= x(5,2) <= 1
 0 <= x(6,2) <= 1
 0 <= x(7,2) <= 1
 0 <= x(8,2) <= 1
 0 <= x(9,2) <= 1
 0 <= x(10,2) <= 1
 0 <= x(11,2) <= 1
 0 <= x(12,2) <= 1
 0 <= x(13,2) <= 1
 0 <= x(14,2) <= 1
 0 <= x(15,2) <= 1
 0 <= x(16,2) <= 1
 0 <= x(17,2) <= 1
 0 <= x(18,2) <= 1
 0 <= x(19,2) <= 1
 0 <= x(20,2) <= 1
 0 <= x(0,3) <= 1
 0 <= x(1,3) <= 1
 0 <= x(2,3) <= 1
 0 <= x(3,3) <= 1
 0 <= x(4,3) <= 1
 0 <= x(5,3) <= 1
 0 <= x(6,3) <= 1
 0 <= x(7,3) <= 1
 0 <= x(8,3) <= 1
 0 <= x(9,3) <= 1
 0 <= x(10,3) <= 1
 0 <= x(11,3) <= 1
 0 <= x(12,3) <= 1
 0 <= x(13,3) <= 1
 0 <= x(14,3) <= 1
 0 <= x(15,3) <= 1
 0 <= x(16,3) <= 1
 0 <= x(17,3) <= 1
 0 <= x(18,3) <= 1
 0 <= x(19,3) <= 1
 0 <= x(20,3) <= 1
 0 <= x(0,4) <= 1
 0 <= x(1,4) <= 1
 0 <= x(2,4) <= 1
 0 <= x(3,4) <= 1
 0 <= x(4,4) <= 1
 0 <= x(5,4) <= 1
 0 <= x(6,4) <= 1
 0 <= x(7,4) <= 1
 0 <= x(8,4) <= 1
 0 <= x(9,4) <= 1
 0 <= x(10,4) <= 1
 0 <= x(11,4) <= 1
 0 <= x(12,4) <= 1
 0 <= x(13,4) <= 1
 0 <= x(14,4) <= 1
 0 <= x(15,4) <= 1
 0 <= x(16,4) <= 1
 0 <= x(17,4) <= 1
 0 <= x(18,4) <= 1
 0 <= x(19,4) <= 1
 0 <= x(20,4) <= 1
 0 <= x(0,5) <= 1
 0 <= x(1,5) <= 1
 0 <= x(2,5) <= 1
 0 <= x(3,5) <= 1
 0 <= x(4,5) <= 1
 0 <= x(5,5) <= 1
 0 <= x(6,5) <= 1
 0 <= x(7,5) <= 1
 0 <= x(8,5) <= 1
 0 <= x(9,5) <= 1
 0 <= x(10,5) <= 1
 0 <= x(11,5) <= 1
 0 <= x(12,5) <= 1
 0 <= x(13,5) <= 1
 0 <= x(14,5) <= 1
 0 <= x(15,5) <= 1
 0 <= x(16,5) <= 1
 0 <= x(17,5) <= 1
 0 <= x(18,5) <= 1
 0 <= x(19,5) <= 1
 0 <= x(20,5) <= 1
 0 <= x(0,6) <= 1
 0 <= x(1,6) <= 1
 0 <= x(2,6) <= 1
 0 <= x(3,6) <= 1
 0 <= x(4,6) <= 1
 0 <= x(5,6) <= 1
 0 <= x(6,6) <= 1
 0 <= x(7,6) <= 1
 0 <= x(8,6) <= 1
 0 <= x(9,6) <= 1
 0 <= x(10,6) <= 1
 0 <= x(11,6) <= 1
 0 <= x(12,6) <= 1
 0 <= x(13,6) <= 1
 0 <= x(14,6) <= 1
 0 <= x(15,6) <= 1
 0 <= x(16,6) <= 1
 0 <= x(17,6) <= 1
 0 <= x(18,6) <= 1
 0 <= x(19,6) <= 1
 0 <= x(20,6) <= 1
 0 <= x(0,7) <= 1
 0 <= x(1,7) <= 1
 0 <= x(2,7) <= 1
 0 <= x(3,7) <= 1
 0 <= x(4,7) <= 1
 0 <= x(5,7) <= 1
 0 <= x(6,7) <= 1
 0 <= x(7,7) <= 1
 0 <= x(8,7) <= 1
 0 <= x(9,7) <= 1
 0 <= x(10,7) <= 1
 0 <= x(11,7) <= 1
 0 <= x(12,7) <= 1
 0 <= x(13,7) <= 1
 0 <= x(14,7) <= 1
 0 <= x(15,7) <= 1
 0 <= x(16,7) <= 1
 0 <= x(17,7) <= 1
 0 <= x(18,7) <= 1
 0 <= x(19,7) <= 1
 0 <= x(20,7) <= 1
 0 <= x(0,8) <= 1
 0 <= x(1,8) <= 1
 0 <= x(2,8) <= 1
 0 <= x(3,8) <= 1
 0 <= x(4,8) <= 1
 0 <= x(5,8) <= 1
 0 <= x(6,8) <= 1
 0 <= x(7,8) <= 1
 0 <= x(8,8) <= 1
 0 <= x(9,8) <= 1
 0 <= x(10,8) <= 1
 0 <= x(11,8) <= 1
 0 <= x(12,8) <= 1
 0 <= x(13,8) <= 1
 0 <= x(14,8) <= 1
 0 <= x(15,8) <= 1
 0 <= x(16,8) <= 1
 0 <= x(17,8) <= 1
 0 <= x(18,8) <= 1
 0 <= x(19,8) <= 1
 0 <= x(20,8) <= 1
 0 <= x(0,9) <= 1
 0 <= x(1,9) <= 1
 0 <= x(2,9) <= 1
 0 <= x(3,9) <= 1
 0 <= x(4,9) <= 1
 0 <= x(5,9) <= 1
 0 <= x(6,9) <= 1
 0 <= x(7,9) <= 1
 0 <= x(8,9) <= 1
 0 <= x(9,9) <= 1
 0 <= x(10,9) <= 1
 0 <= x(11,9) <= 1
 0 <= x(12,9) <= 1
 0 <= x(13,9) <= 1
 0 <= x(14,9) <= 1
 0 <= x(15,9) <= 1
 0 <= x(16,9) <= 1
 0 <= x(17,9) <= 1
 0 <= x(18,9) <= 1
 0 <= x(19,9) <= 1
 0 <= x(20,9) <= 1
 0 <= x(0,10) <= 1
 0 <= x(1,10) <= 1
 0 <= x(2,10) <= 1
 0 <= x(3,10) <= 1
 0 <= x(4,10) <= 1
 0 <= x(5,10) <= 1
 0 <= x(6,10) <= 1
 0 <= x(7,10) <= 1
 0 <= x(8,10) <= 1
 0 <= x(9,10) <= 1
 0 <= x(10,10) <= 1
 0 <= x(11,10) <= 1
 0 <= x(12,10) <= 1
 0 <= x(13,10) <= 1
 0 <= x(14,10) <= 1
 0 <= x(15,10) <= 1
 0 <= x(16,10) <= 1
 0 <= x(17,10) <= 1
 0 <= x(18,10) <= 1
 0 <= x(19,10) <= 1
 0 <= x(20,10) <= 1
 0 <= x(0,11) <= 1
 0 <= x(1,11) <= 1
 0 <= x(2,11) <= 1
 0 <= x(3,11) <= 1
 0 <= x(4,11) <= 1
 0 <= x(5,11) <= 1
 0 <= x(6,11) <= 1
 0 <= x(7,11) <= 1
 0 <= x(8,11) <= 1
 0 <= x(9,11) <= 1
 0 <= x(10,11) <= 1
 0 <= x(11,11) <= 1
 0 <= x(12,11) <= 1
 0 <= x(13,11) <= 1
 0 <= x(14,11) <= 1
 0 <= x(15,11) <= 1
 0 <= x(16,11) <= 1
 0 <= x(17,11) <= 1
 0 <= x(18,11) <= 1
 0 <= x(19,11) <= 1
 0 <= x(20,11) <= 1
 0 <= x(0,12) <= 1
 0 <= x(1,12) <= 1
 0 <= x(2,12) <= 1
 0 <= x(3,12) <= 1
 0 <= x(4,12) <= 1
 0 <= x(5,12) <= 1
 0 <= x(6,12) <= 1
 0 <= x(7,12) <= 1
 0 <= x(8,12) <= 1
 0 <= x(9,12) <= 1
 0 <= x(10,12) <= 1
 0 <= x(11,12) <= 1
 0 <= x(12,12) <= 1
 0 <= x(13,12) <= 1
 0 <= x(14,12) <= 1
 0 <= x(15,12) <= 1
 0 <= x(16,12) <= 1
 0 <= x(17,12) <= 1
 0 <= x(18,12) <= 1
 0 <= x(19,12) <= 1
 0 <= x(20,12) <= 1
 0 <= x(0,13) <= 1
 0 <= x(1,13) <= 1
 0 <= x(2,13) <= 1
 0 <= x(3,13) <= 1
 0 <= x(4,13) <= 1
 0 <= x(5,13) <= 1
 0 <= x(6,13) <= 1
 0 <= x(7,13) <= 1
 0 <= x(8,13) <= 1
 0 <= x(9,13) <= 1
 0 <= x(10,13) <= 1
 0 <= x(11,13) <= 1
 0 <= x(12,13) <= 1
 0 <= x(13,13) <= 1
 0 <= x(14,13) <= 1
 0 <= x(15,13) <= 1
 0 <= x(16,13) <= 1
 0 <= x(17,13) <= 1
 0 <= x(18,13) <= 1
 0 <= x(19,13) <= 1
 0 <= x(20,13) <= 1
 0 <= x(0,14) <= 1
 0 <= x(1,14) <= 1
 0 <= x(2,14) <= 1
 0 <= x(3,14) <= 1
 0 <= x(4,14) <= 1
 0 <= x(5,14) <= 1
 0 <= x(6,14) <= 1
 0 <= x(7,14) <= 1
 0 <= x(8,14) <= 1
 0 <= x(9,14) <= 1
 0 <= x(10,14) <= 1
 0 <= x(11,14) <= 1
 0 <= x(12,14) <= 1
 0 <= x(13,14) <= 1
 0 <= x(14,14) <= 1
 0 <= x(15,14) <= 1
 0 <= x(16,14) <= 1
 0 <= x(17,14) <= 1
 0 <= x(18,14) <= 1
 0 <= x(19,14) <= 1
 0 <= x(20,14) <= 1
 0 <= x(0,15) <= 1
 0 <= x(1,15) <= 1
 0 <= x(2,15) <= 1
 0 <= x(3,15) <= 1
 0 <= x(4,15) <= 1
 0 <= x(5,15) <= 1
 0 <= x(6,15) <= 1
 0 <= x(7,15) <= 1
 0 <= x(8,15) <= 1
 0 <= x(9,15) <= 1
 0 <= x(10,15) <= 1
 0 <= x(11,15) <= 1
 0 <= x(12,15) <= 1
 0 <= x(13,15) <= 1
 0 <= x(14,15) <= 1
 0 <= x(15,15) <= 1
 0 <= x(16,15) <= 1
 0 <= x(17,15) <= 1
 0 <= x(18,15) <= 1
 0 <= x(19,15) <= 1
 0 <= x(20,15) <= 1
 0 <= x(0,16) <= 1
 0 <= x(1,16) <= 1
 0 <= x(2,16) <= 1
 0 <= x(3,16) <= 1
 0 <= x(4,16) <= 1
 0 <= x(5,16) <= 1
 0 <= x(6,16) <= 1
 0 <= x(7,16) <= 1
 0 <= x(8,16) <= 1
 0 <= x(9,16) <= 1
 0 <= x(10,16) <= 1
 0 <= x(11,16) <= 1
 0 <= x(12,16) <= 1
 0 <= x(13,16) <= 1
 0 <= x(14,16) <= 1
 0 <= x(15,16) <= 1
 0 <= x(16,16) <= 1
 0 <= x(17,16) <= 1
 0 <= x(18,16) <= 1
 0 <= x(19,16) <= 1
 0 <= x(20,16) <= 1
 0 <= x(0,17) <= 1
 0 <= x(1,17) <= 1
 0 <= x(2,17) <= 1
 0 <= x(3,17) <= 1
 0 <= x(4,17) <= 1
 0 <= x(5,17) <= 1
 0 <= x(6,17) <= 1
 0 <= x(7,17) <= 1
 0 <= x(8,17) <= 1
 0 <= x(9,17) <= 1
 0 <= x(10,17) <= 1
 0 <= x(11,17) <= 1
 0 <= x(12,17) <= 1
 0 <= x(13,17) <= 1
 0 <= x(14,17) <= 1
 0 <= x(15,17) <= 1
 0 <= x(16,17) <= 1
 0 <= x(17,17) <= 1
 0 <= x(18,17) <= 1
 0 <= x(19,17) <= 1
 0 <= x(20,17) <= 1
 0 <= x(0,18) <= 1
 0 <= x(1,18) <= 1
 0 <= x(2,18) <= 1
 0 <= x(3,18) <= 1
 0 <= x(4,18) <= 1
 0 <= x(5,18) <= 1
 0 <= x(6,18) <= 1
 0 <= x(7,18) <= 1
 0 <= x(8,18) <= 1
 0 <= x(9,18) <= 1
 0 <= x(10,18) <= 1
 0 <= x(11,18) <= 1
 0 <= x(12,18) <= 1
 0 <= x(13,18) <= 1
 0 <= x(14,18) <= 1
 0 <= x(15,18) <= 1
 0 <= x(16,18) <= 1
 0 <= x(17,18) <= 1
 0 <= x(18,18) <= 1
 0 <= x(19,18) <= 1
 0 <= x(20,18) <= 1
 0 <= x(0,19) <= 1
 0 <= x(1,19) <= 1
 0 <= x(2,19) <= 1
 0 <= x(3,19) <= 1
 0 <= x(4,19) <= 1
 0 <= x(5,19) <= 1
 0 <= x(6,19) <= 1
 0 <= x(7,19) <= 1
 0 <= x(8,19) <= 1
 0 <= x(9,19) <= 1
 0 <= x(10,19) <= 1
 0 <= x(11,19) <= 1
 0 <= x(12,19) <= 1
 0 <= x(13,19) <= 1
 0 <= x(14,19) <= 1
 0 <= x(15,19) <= 1
 0 <= x(16,19) <= 1
 0 <= x(17,19) <= 1
 0 <= x(18,19) <= 1
 0 <= x(19,19) <= 1
 0 <= x(20,19) <= 1
 0 <= x(0,20) <= 1
 0 <= x(1,20) <= 1
 0 <= x(2,20) <= 1
 0 <= x(3,20) <= 1
 0 <= x(4,20) <= 1
 0 <= x(5,20) <= 1
 0 <= x(6,20) <= 1
 0 <= x(7,20) <= 1
 0 <= x(8,20) <= 1
 0 <= x(9,20) <= 1
 0 <= x(10,20) <= 1
 0 <= x(11,20) <= 1
 0 <= x(12,20) <= 1
 0 <= x(13,20) <= 1
 0 <= x(14,20) <= 1
 0 <= x(15,20) <= 1
 0 <= x(16,20) <= 1
 0 <= x(17,20) <= 1
 0 <= x(18,20) <= 1
 0 <= x(19,20) <= 1
 0 <= x(20,20) <= 1
Integers
Y0 Y1 Y2 Y3 Y4 Y5 Y6 Y7 Y8 Y9 
Y10 Y11 Y12 Y13 Y14 Y15 Y16 Y17 Y18 Y19 
Y20 x(0,0) x(1,0) x(2,0) x(3,0) x(4,0) x(5,0) x(6,0) x(7,0) x(8,0) 
x(9,0) x(10,0) x(11,0) x(12,0) x(13,0) x(14,0) x(15,0) x(16,0) x(17,0) x(18,0) 
x(19,0) x(20,0) x(0,1) x(1,1) x(2,1) x(3,1) x(4,1) x(5,1) x(6,1) x(7,1) 
x(8,1) x(9,1) x(10,1) x(11,1) x(12,1) x(13,1) x(14,1) x(15,1) x(16,1) x(17,1) 
x(18,1) x(19,1) x(20,1) x(0,2) x(1,2) x(2,2) x(3,2) x(4,2) x(5,2) x(6,2) 
x(7,2) x(8,2) x(9,2) x(10,2) x(11,2) x(12,2) x(13,2) x(14,2) x(15,2) x(16,2) 
x(17,2) x(18,2) x(19,2) x(20,2) x(0,3) x(1,3) x(2,3) x(3,3) x(4,3) x(5,3) 
x(6,3) x(7,3) x(8,3) x(9,3) x(10,3) x(11,3) x(12,3) x(13,3) x(14,3) x(15,3) 
x(16,3) x(17,3) x(18,3) x(19,3) x(20,3) x(0,4) x(1,4) x(2,4) x(3,4) x(4,4) 
x(5,4) x(6,4) x(7,4) x(8,4) x(9,4) x(10,4) x(11,4) x(12,4) x(13,4) x(14,4) 
x(15,4) x(16,4) x(17,4) x(18,4) x(19,4) x(20,4) x(0,5) x(1,5) x(2,5) x(3,5) 
x(4,5) x(5,5) x(6,5) x(7,5) x(8,5) x(9,5) x(10,5) x(11,5) x(12,5) x(13,5) 
x(14,5) x(15,5) x(16,5) x(17,5) x(18,5) x(19,5) x(20,5) x(0,6) x(1,6) x(2,6) 
x(3,6) x(4,6) x(5,6) x(6,6) x(7,6) x(8,6) x(9,6) x(10,6) x(11,6) x(12,6) 
x(13,6) x(14,6) x(15,6) x(16,6) x(17,6) x(18,6) x(19,6) x(20,6) x(0,7) x(1,7) 
x(2,7) x(3,7) x(4,7) x(5,7) x(6,7) x(7,7) x(8,7) x(9,7) x(10,7) x(11,7) 
x(12,7) x(13,7) x(14,7) x(15,7) x(16,7) x(17,7) x(18,7) x(19,7) x(20,7) x(0,8) 
x(1,8) x(2,8) x(3,8) x(4,8) x(5,8) x(6,8) x(7,8) x(8,8) x(9,8) x(10,8) 
x(11,8) x(12,8) x(13,8) x(14,8) x(15,8) x(16,8) x(17,8) x(18,8) x(19,8) x(20,8) 
x(0,9) x(1,9) x(2,9) x(3,9) x(4,9) x(5,9) x(6,9) x(7,9) x(8,9) x(9,9) 
x(10,9) x(11,9) x(12,9) x(13,9) x(14,9) x(15,9) x(16,9) x(17,9) x(18,9) x(19,9) 
x(20,9) x(0,10) x(1,10) x(2,10) x(3,10) x(4,10) x(5,10) x(6,10) x(7,10) x(8,10) 
x(9,10) x(10,10) x(11,10) x(12,10) x(13,10) x(14,10) x(15,10) x(16,10) x(17,10) x(18,10) 
x(19,10) x(20,10) x(0,11) x(1,11) x(2,11) x(3,11) x(4,11) x(5,11) x(6,11) x(7,11) 
x(8,11) x(9,11) x(10,11) x(11,11) x(12,11) x(13,11) x(14,11) x(15,11) x(16,11) x(17,11) 
x(18,11) x(19,11) x(20,11) x(0,12) x(1,12) x(2,12) x(3,12) x(4,12) x(5,12) x(6,12) 
x(7,12) x(8,12) x(9,12) x(10,12) x(11,12) x(12,12) x(13,12) x(14,12) x(15,12) x(16,12) 
x(17,12) x(18,12) x(19,12) x(20,12) x(0,13) x(1,13) x(2,13) x(3,13) x(4,13) x(5,13) 
x(6,13) x(7,13) x(8,13) x(9,13) x(10,13) x(11,13) x(12,13) x(13,13) x(14,13) x(15,13) 
x(16,13) x(17,13) x(18,13) x(19,13) x(20,13) x(0,14) x(1,14) x(2,14) x(3,14) x(4,14) 
x(5,14) x(6,14) x(7,14) x(8,14) x(9,14) x(10,14) x(11,14) x(12,14) x(13,14) x(14,14) 
x(15,14) x(16,14) x(17,14) x(18,14) x(19,14) x(20,14) x(0,15) x(1,15) x(2,15) x(3,15) 
x(4,15) x(5,15) x(6,15) x(7,15) x(8,15) x(9,15) x(10,15) x(11,15) x(12,15) x(13,15) 
x(14,15) x(15,15) x(16,15) x(17,15) x(18,15) x(19,15) x(20,15) x(0,16) x(1,16) x(2,16) 
x(3,16) x(4,16) x(5,16) x(6,16) x(7,16) x(8,16) x(9,16) x(10,16) x(11,16) x(12,16) 
x(13,16) x(14,16) x(15,16) x(16,16) x(17,16) x(18,16) x(19,16) x(20,16) x(0,17) x(1,17) 
x(2,17) x(3,17) x(4,17) x(5,17) x(6,17) x(7,17) x(8,17) x(9,17) x(10,17) x(11,17) 
x(12,17) x(13,17) x(14,17) x(15,17) x(16,17) x(17,17) x(18,17) x(19,17) x(20,17) x(0,18) 
x(1,18) x(2,18) x(3,18) x(4,18) x(5,18) x(6,18) x(7,18) x(8,18) x(9,18) x(10,18) 
x(11,18) x(12,18) x(13,18) x(14,18) x(15,18) x(16,18) x(17,18) x(18,18) x(19,18) x(20,18) 
x(0,19) x(1,19) x(2,19) x(3,19) x(4,19) x(5,19) x(6,19) x(7,19) x(8,19) x(9,19) 
x(10,19) x(11,19) x(12,19) x(13,19) x(14,19) x(15,19) x(16,19) x(17,19) x(18,19) x(19,19) 
x(20,19) x(0,20) x(1,20) x(2,20) x(3,20) x(4,20) x(5,20) x(6,20) x(7,20) x(8,20) 
x(9,20) x(10,20) x(11,20) x(12,20) x(13,20) x(14,20) x(15,20) x(16,20) x(17,20) x(18,20) 
x(19,20) x(20,20) 
End
